100
128
35
43
22
43
58
35
17
63
11
11
2
48
5
32
28
14
45
31
42
50
47
55
27
27
16
8
38
12
34
27
19
41
17
40
1
20
10
10
48
37
37
53
48
54
62
46
20
24
21
64
32
40
19
18
18
41
20
59
36
46
29
17
33
3
2
21
1
36
17
59
56
7
43
14
15
54
1
1
16
40
14
20
47
42
32
41
3
54
61
27
38
30
27
47
40
1
56
24
19
32